ITEM = 1..35;
capacity1 = 326;
capacity2 = 326;
capacity3 = 326;
profits = [21, 37, 47, 42, 49, 22, 48, 54, 22, 34, 80, 58, 25, 72, 21, 30, 81, 32, 87, 55, 89, 49, 20, 30, 49, 73, 26, 38, 57, 41, 63, 24, 26, 28, 25];
weights = [33, 53, 38, 87, 84, 20, 68, 44, 13, 34, 84, 62, 77, 72, 11, 51, 71, 59, 79, 71, 84, 54, 76, 31, 57, 71, 55, 83, 80, 33, 57, 15, 35, 42, 72];
